54, 261
393, 117
202, 130
476, 450
378, 383
403, 353
240, 361
439, 299
384, 367
419, 441
337, 379
329, 163
391, 393
469, 421
330, 128
276, 256
410, 318
213, 392
279, 207
478, 181
430, 177
255, 272
110, 335
273, 216
223, 357
241, 154
247, 426
149, 146
489, 359
175, 173
331, 464
255, 299
294, 388
148, 391
407, 401
149, 134
522, 430
508, 104
481, 191
236, 206
489, 119
125, 295
287, 388
225, 259
424, 295
445, 449
226, 138
388, 352
535, 418
425, 294
419, 332
419, 318
420, 258
544, 130
144, 280